; benchmark generated from python API
(set-info :status unknown)
(declare-fun cell_1_4 () Int)
(declare-fun cell_1_7 () Int)
(declare-fun cell_1_8 () Int)
(declare-fun cell_2_1 () Int)
(declare-fun cell_2_4 () Int)
(declare-fun cell_2_9 () Int)
(declare-fun cell_3_2 () Int)
(declare-fun cell_3_4 () Int)
(declare-fun cell_4_6 () Int)
(declare-fun cell_4_8 () Int)
(declare-fun cell_5_2 () Int)
(declare-fun cell_5_3 () Int)
(declare-fun cell_6_6 () Int)
(declare-fun cell_6_9 () Int)
(declare-fun cell_7_5 () Int)
(declare-fun cell_7_7 () Int)
(declare-fun cell_8_3 () Int)
(declare-fun cell_8_9 () Int)
(declare-fun cell_9_1 () Int)
(declare-fun cell_9_5 () Int)
(declare-fun cell_1_1 () Int)
(declare-fun cell_3_1 () Int)
(declare-fun cell_4_1 () Int)
(declare-fun cell_5_1 () Int)
(declare-fun cell_6_1 () Int)
(declare-fun cell_7_1 () Int)
(declare-fun cell_8_1 () Int)
(declare-fun cell_1_2 () Int)
(declare-fun cell_2_2 () Int)
(declare-fun cell_4_2 () Int)
(declare-fun cell_6_2 () Int)
(declare-fun cell_7_2 () Int)
(declare-fun cell_8_2 () Int)
(declare-fun cell_9_2 () Int)
(declare-fun cell_1_3 () Int)
(declare-fun cell_2_3 () Int)
(declare-fun cell_3_3 () Int)
(declare-fun cell_4_3 () Int)
(declare-fun cell_6_3 () Int)
(declare-fun cell_7_3 () Int)
(declare-fun cell_9_3 () Int)
(declare-fun cell_4_4 () Int)
(declare-fun cell_5_4 () Int)
(declare-fun cell_6_4 () Int)
(declare-fun cell_7_4 () Int)
(declare-fun cell_8_4 () Int)
(declare-fun cell_9_4 () Int)
(declare-fun cell_1_5 () Int)
(declare-fun cell_2_5 () Int)
(declare-fun cell_3_5 () Int)
(declare-fun cell_4_5 () Int)
(declare-fun cell_5_5 () Int)
(declare-fun cell_6_5 () Int)
(declare-fun cell_8_5 () Int)
(declare-fun cell_1_6 () Int)
(declare-fun cell_2_6 () Int)
(declare-fun cell_3_6 () Int)
(declare-fun cell_5_6 () Int)
(declare-fun cell_7_6 () Int)
(declare-fun cell_8_6 () Int)
(declare-fun cell_9_6 () Int)
(declare-fun cell_2_7 () Int)
(declare-fun cell_3_7 () Int)
(declare-fun cell_4_7 () Int)
(declare-fun cell_5_7 () Int)
(declare-fun cell_6_7 () Int)
(declare-fun cell_8_7 () Int)
(declare-fun cell_9_7 () Int)
(declare-fun cell_2_8 () Int)
(declare-fun cell_3_8 () Int)
(declare-fun cell_5_8 () Int)
(declare-fun cell_6_8 () Int)
(declare-fun cell_7_8 () Int)
(declare-fun cell_8_8 () Int)
(declare-fun cell_9_8 () Int)
(declare-fun cell_1_9 () Int)
(declare-fun cell_3_9 () Int)
(declare-fun cell_4_9 () Int)
(declare-fun cell_5_9 () Int)
(declare-fun cell_7_9 () Int)
(declare-fun cell_9_9 () Int)
(assert
 (= cell_1_4 3))
(assert
 (= cell_1_7 1))
(assert
 (= cell_1_8 2))
(assert
 (= cell_2_1 2))
(assert
 (= cell_2_4 1))
(assert
 (= cell_2_9 3))
(assert
 (= cell_3_2 1))
(assert
 (= cell_3_4 2))
(assert
 (= cell_4_6 2))
(assert
 (= cell_4_8 1))
(assert
 (= cell_5_2 2))
(assert
 (= cell_5_3 1))
(assert
 (= cell_6_6 1))
(assert
 (= cell_6_9 2))
(assert
 (= cell_7_5 1))
(assert
 (= cell_7_7 2))
(assert
 (= cell_8_3 2))
(assert
 (= cell_8_9 1))
(assert
 (= cell_9_1 1))
(assert
 (= cell_9_5 2))
(assert
 (let (($x4477 (= cell_1_1 9)))
 (let (($x6450 (= cell_1_1 8)))
 (let (($x447 (= cell_1_1 7)))
 (let (($x9853 (= cell_1_1 6)))
 (let (($x6924 (= cell_1_1 5)))
 (let (($x7422 (= cell_1_1 4)))
 (let (($x4751 (= cell_1_1 3)))
 (let (($x2680 (= cell_1_1 2)))
 (let (($x1669 (= cell_1_1 1)))
 (or $x1669 $x2680 $x4751 $x7422 $x6924 $x9853 $x447 $x6450 $x4477)))))))))))
(assert
 (let (($x6728 (= cell_2_1 2)))
 (or (= cell_2_1 1) $x6728 (= cell_2_1 3) (= cell_2_1 4) (= cell_2_1 5) (= cell_2_1 6) (= cell_2_1 7) (= cell_2_1 8) (= cell_2_1 9))))
(assert
 (let (($x5053 (= cell_3_1 9)))
 (let (($x5982 (= cell_3_1 8)))
 (let (($x5378 (= cell_3_1 7)))
 (let (($x3086 (= cell_3_1 6)))
 (let (($x4256 (= cell_3_1 5)))
 (let (($x7201 (= cell_3_1 4)))
 (let (($x9939 (= cell_3_1 3)))
 (let (($x3443 (= cell_3_1 2)))
 (let (($x1205 (= cell_3_1 1)))
 (or $x1205 $x3443 $x9939 $x7201 $x4256 $x3086 $x5378 $x5982 $x5053)))))))))))
(assert
 (let (($x2279 (= cell_4_1 9)))
 (let (($x6358 (= cell_4_1 8)))
 (let (($x9697 (= cell_4_1 7)))
 (let (($x8573 (= cell_4_1 6)))
 (let (($x4980 (= cell_4_1 5)))
 (let (($x7089 (= cell_4_1 4)))
 (let (($x2245 (= cell_4_1 3)))
 (let (($x4149 (= cell_4_1 2)))
 (let (($x3111 (= cell_4_1 1)))
 (or $x3111 $x4149 $x2245 $x7089 $x4980 $x8573 $x9697 $x6358 $x2279)))))))))))
(assert
 (let (($x6632 (= cell_5_1 9)))
 (let (($x7653 (= cell_5_1 8)))
 (let (($x3558 (= cell_5_1 7)))
 (let (($x6167 (= cell_5_1 6)))
 (let (($x9231 (= cell_5_1 5)))
 (let (($x4458 (= cell_5_1 4)))
 (let (($x10035 (= cell_5_1 3)))
 (let (($x7553 (= cell_5_1 2)))
 (let (($x4723 (= cell_5_1 1)))
 (or $x4723 $x7553 $x10035 $x4458 $x9231 $x6167 $x3558 $x7653 $x6632)))))))))))
(assert
 (let (($x8832 (= cell_6_1 9)))
 (let (($x8857 (= cell_6_1 8)))
 (let (($x5546 (= cell_6_1 7)))
 (let (($x5169 (= cell_6_1 6)))
 (let (($x8031 (= cell_6_1 5)))
 (let (($x726 (= cell_6_1 4)))
 (let (($x7101 (= cell_6_1 3)))
 (let (($x5664 (= cell_6_1 2)))
 (let (($x5863 (= cell_6_1 1)))
 (or $x5863 $x5664 $x7101 $x726 $x8031 $x5169 $x5546 $x8857 $x8832)))))))))))
(assert
 (let (($x5223 (= cell_7_1 9)))
 (let (($x8821 (= cell_7_1 8)))
 (let (($x9971 (= cell_7_1 7)))
 (let (($x8398 (= cell_7_1 6)))
 (let (($x9824 (= cell_7_1 5)))
 (let (($x8689 (= cell_7_1 4)))
 (let (($x9302 (= cell_7_1 3)))
 (let (($x25 (= cell_7_1 2)))
 (let (($x2074 (= cell_7_1 1)))
 (or $x2074 $x25 $x9302 $x8689 $x9824 $x8398 $x9971 $x8821 $x5223)))))))))))
(assert
 (let (($x906 (= cell_8_1 9)))
 (let (($x7901 (= cell_8_1 8)))
 (let (($x7366 (= cell_8_1 7)))
 (let (($x861 (= cell_8_1 6)))
 (let (($x3390 (= cell_8_1 5)))
 (let (($x7317 (= cell_8_1 4)))
 (let (($x8623 (= cell_8_1 3)))
 (let (($x1861 (= cell_8_1 2)))
 (let (($x4170 (= cell_8_1 1)))
 (or $x4170 $x1861 $x8623 $x7317 $x3390 $x861 $x7366 $x7901 $x906)))))))))))
(assert
 (let (($x1450 (= cell_9_1 1)))
 (or $x1450 (= cell_9_1 2) (= cell_9_1 3) (= cell_9_1 4) (= cell_9_1 5) (= cell_9_1 6) (= cell_9_1 7) (= cell_9_1 8) (= cell_9_1 9))))
(assert
 (let (($x6034 (= cell_1_2 9)))
 (let (($x4920 (= cell_1_2 8)))
 (let (($x4399 (= cell_1_2 7)))
 (let (($x5732 (= cell_1_2 6)))
 (let (($x5031 (= cell_1_2 5)))
 (let (($x6768 (= cell_1_2 4)))
 (let (($x10034 (= cell_1_2 3)))
 (let (($x1411 (= cell_1_2 2)))
 (let (($x8568 (= cell_1_2 1)))
 (or $x8568 $x1411 $x10034 $x6768 $x5031 $x5732 $x4399 $x4920 $x6034)))))))))))
(assert
 (let (($x4461 (= cell_2_2 9)))
 (let (($x6998 (= cell_2_2 8)))
 (let (($x2965 (= cell_2_2 7)))
 (let (($x1302 (= cell_2_2 6)))
 (let (($x7556 (= cell_2_2 5)))
 (let (($x8919 (= cell_2_2 4)))
 (let (($x8308 (= cell_2_2 3)))
 (let (($x9717 (= cell_2_2 2)))
 (let (($x9395 (= cell_2_2 1)))
 (or $x9395 $x9717 $x8308 $x8919 $x7556 $x1302 $x2965 $x6998 $x4461)))))))))))
(assert
 (let (($x4453 (= cell_3_2 1)))
 (or $x4453 (= cell_3_2 2) (= cell_3_2 3) (= cell_3_2 4) (= cell_3_2 5) (= cell_3_2 6) (= cell_3_2 7) (= cell_3_2 8) (= cell_3_2 9))))
(assert
 (let (($x1527 (= cell_4_2 9)))
 (let (($x7735 (= cell_4_2 8)))
 (let (($x74 (= cell_4_2 7)))
 (let (($x7004 (= cell_4_2 6)))
 (let (($x3030 (= cell_4_2 5)))
 (let (($x132 (= cell_4_2 4)))
 (let (($x6535 (= cell_4_2 3)))
 (let (($x7692 (= cell_4_2 2)))
 (let (($x588 (= cell_4_2 1)))
 (or $x588 $x7692 $x6535 $x132 $x3030 $x7004 $x74 $x7735 $x1527)))))))))))
(assert
 (let (($x2105 (= cell_5_2 2)))
 (or (= cell_5_2 1) $x2105 (= cell_5_2 3) (= cell_5_2 4) (= cell_5_2 5) (= cell_5_2 6) (= cell_5_2 7) (= cell_5_2 8) (= cell_5_2 9))))
(assert
 (let (($x5065 (= cell_6_2 9)))
 (let (($x3653 (= cell_6_2 8)))
 (let (($x1916 (= cell_6_2 7)))
 (let (($x2877 (= cell_6_2 6)))
 (let (($x16 (= cell_6_2 5)))
 (let (($x4988 (= cell_6_2 4)))
 (let (($x5369 (= cell_6_2 3)))
 (let (($x1548 (= cell_6_2 2)))
 (let (($x7784 (= cell_6_2 1)))
 (or $x7784 $x1548 $x5369 $x4988 $x16 $x2877 $x1916 $x3653 $x5065)))))))))))
(assert
 (let (($x6646 (= cell_7_2 9)))
 (let (($x7829 (= cell_7_2 8)))
 (let (($x5191 (= cell_7_2 7)))
 (let (($x5402 (= cell_7_2 6)))
 (let (($x6550 (= cell_7_2 5)))
 (let (($x5515 (= cell_7_2 4)))
 (let (($x5773 (= cell_7_2 3)))
 (let (($x1135 (= cell_7_2 2)))
 (let (($x2759 (= cell_7_2 1)))
 (or $x2759 $x1135 $x5773 $x5515 $x6550 $x5402 $x5191 $x7829 $x6646)))))))))))
(assert
 (let (($x3237 (= cell_8_2 9)))
 (let (($x7778 (= cell_8_2 8)))
 (let (($x7288 (= cell_8_2 7)))
 (let (($x7367 (= cell_8_2 6)))
 (let (($x5922 (= cell_8_2 5)))
 (let (($x5463 (= cell_8_2 4)))
 (let (($x9065 (= cell_8_2 3)))
 (let (($x7629 (= cell_8_2 2)))
 (let (($x5678 (= cell_8_2 1)))
 (or $x5678 $x7629 $x9065 $x5463 $x5922 $x7367 $x7288 $x7778 $x3237)))))))))))
(assert
 (let (($x1787 (= cell_9_2 9)))
 (let (($x4065 (= cell_9_2 8)))
 (let (($x7911 (= cell_9_2 7)))
 (let (($x5979 (= cell_9_2 6)))
 (let (($x3261 (= cell_9_2 5)))
 (let (($x6275 (= cell_9_2 4)))
 (let (($x2847 (= cell_9_2 3)))
 (let (($x7499 (= cell_9_2 2)))
 (let (($x673 (= cell_9_2 1)))
 (or $x673 $x7499 $x2847 $x6275 $x3261 $x5979 $x7911 $x4065 $x1787)))))))))))
(assert
 (let (($x7011 (= cell_1_3 9)))
 (let (($x4271 (= cell_1_3 8)))
 (let (($x7844 (= cell_1_3 7)))
 (let (($x9257 (= cell_1_3 6)))
 (let (($x5900 (= cell_1_3 5)))
 (let (($x1352 (= cell_1_3 4)))
 (let (($x6006 (= cell_1_3 3)))
 (let (($x4439 (= cell_1_3 2)))
 (let (($x2963 (= cell_1_3 1)))
 (or $x2963 $x4439 $x6006 $x1352 $x5900 $x9257 $x7844 $x4271 $x7011)))))))))))
(assert
 (let (($x3694 (= cell_2_3 9)))
 (let (($x1483 (= cell_2_3 8)))
 (let (($x6669 (= cell_2_3 7)))
 (let (($x9867 (= cell_2_3 6)))
 (let (($x7151 (= cell_2_3 5)))
 (let (($x5235 (= cell_2_3 4)))
 (let (($x8969 (= cell_2_3 3)))
 (let (($x167 (= cell_2_3 2)))
 (let (($x4172 (= cell_2_3 1)))
 (or $x4172 $x167 $x8969 $x5235 $x7151 $x9867 $x6669 $x1483 $x3694)))))))))))
(assert
 (let (($x5519 (= cell_3_3 9)))
 (let (($x1749 (= cell_3_3 8)))
 (let (($x2979 (= cell_3_3 7)))
 (let (($x2806 (= cell_3_3 6)))
 (let (($x5915 (= cell_3_3 5)))
 (let (($x3714 (= cell_3_3 4)))
 (let (($x7196 (= cell_3_3 3)))
 (let (($x1444 (= cell_3_3 2)))
 (let (($x6965 (= cell_3_3 1)))
 (or $x6965 $x1444 $x7196 $x3714 $x5915 $x2806 $x2979 $x1749 $x5519)))))))))))
(assert
 (let (($x4527 (= cell_4_3 9)))
 (let (($x4472 (= cell_4_3 8)))
 (let (($x5221 (= cell_4_3 7)))
 (let (($x8148 (= cell_4_3 6)))
 (let (($x6024 (= cell_4_3 5)))
 (let (($x3961 (= cell_4_3 4)))
 (let (($x3506 (= cell_4_3 3)))
 (let (($x402 (= cell_4_3 2)))
 (let (($x4147 (= cell_4_3 1)))
 (or $x4147 $x402 $x3506 $x3961 $x6024 $x8148 $x5221 $x4472 $x4527)))))))))))
(assert
 (let (($x2550 (= cell_5_3 1)))
 (or $x2550 (= cell_5_3 2) (= cell_5_3 3) (= cell_5_3 4) (= cell_5_3 5) (= cell_5_3 6) (= cell_5_3 7) (= cell_5_3 8) (= cell_5_3 9))))
(assert
 (let (($x9573 (= cell_6_3 9)))
 (let (($x3633 (= cell_6_3 8)))
 (let (($x5117 (= cell_6_3 7)))
 (let (($x772 (= cell_6_3 6)))
 (let (($x8166 (= cell_6_3 5)))
 (let (($x3022 (= cell_6_3 4)))
 (let (($x5729 (= cell_6_3 3)))
 (let (($x2668 (= cell_6_3 2)))
 (let (($x3154 (= cell_6_3 1)))
 (or $x3154 $x2668 $x5729 $x3022 $x8166 $x772 $x5117 $x3633 $x9573)))))))))))
(assert
 (let (($x1152 (= cell_7_3 9)))
 (let (($x6124 (= cell_7_3 8)))
 (let (($x2347 (= cell_7_3 7)))
 (let (($x6594 (= cell_7_3 6)))
 (let (($x7830 (= cell_7_3 5)))
 (let (($x8111 (= cell_7_3 4)))
 (let (($x6166 (= cell_7_3 3)))
 (let (($x4274 (= cell_7_3 2)))
 (let (($x8587 (= cell_7_3 1)))
 (or $x8587 $x4274 $x6166 $x8111 $x7830 $x6594 $x2347 $x6124 $x1152)))))))))))
(assert
 (let (($x7915 (= cell_8_3 2)))
 (or (= cell_8_3 1) $x7915 (= cell_8_3 3) (= cell_8_3 4) (= cell_8_3 5) (= cell_8_3 6) (= cell_8_3 7) (= cell_8_3 8) (= cell_8_3 9))))
(assert
 (let (($x3131 (= cell_9_3 9)))
 (let (($x3657 (= cell_9_3 8)))
 (let (($x3054 (= cell_9_3 7)))
 (let (($x6912 (= cell_9_3 6)))
 (let (($x4250 (= cell_9_3 5)))
 (let (($x8014 (= cell_9_3 4)))
 (let (($x10094 (= cell_9_3 3)))
 (let (($x7068 (= cell_9_3 2)))
 (let (($x942 (= cell_9_3 1)))
 (or $x942 $x7068 $x10094 $x8014 $x4250 $x6912 $x3054 $x3657 $x3131)))))))))))
(assert
 (let (($x837 (= cell_1_4 3)))
 (or (= cell_1_4 1) (= cell_1_4 2) $x837 (= cell_1_4 4) (= cell_1_4 5) (= cell_1_4 6) (= cell_1_4 7) (= cell_1_4 8) (= cell_1_4 9))))
(assert
 (let (($x7113 (= cell_2_4 1)))
 (or $x7113 (= cell_2_4 2) (= cell_2_4 3) (= cell_2_4 4) (= cell_2_4 5) (= cell_2_4 6) (= cell_2_4 7) (= cell_2_4 8) (= cell_2_4 9))))
(assert
 (let (($x1071 (= cell_3_4 2)))
 (or (= cell_3_4 1) $x1071 (= cell_3_4 3) (= cell_3_4 4) (= cell_3_4 5) (= cell_3_4 6) (= cell_3_4 7) (= cell_3_4 8) (= cell_3_4 9))))
(assert
 (let (($x7195 (= cell_4_4 9)))
 (let (($x373 (= cell_4_4 8)))
 (let (($x8051 (= cell_4_4 7)))
 (let (($x6407 (= cell_4_4 6)))
 (let (($x3972 (= cell_4_4 5)))
 (let (($x7828 (= cell_4_4 4)))
 (let (($x8113 (= cell_4_4 3)))
 (let (($x4377 (= cell_4_4 2)))
 (let (($x3397 (= cell_4_4 1)))
 (or $x3397 $x4377 $x8113 $x7828 $x3972 $x6407 $x8051 $x373 $x7195)))))))))))
(assert
 (let (($x6209 (= cell_5_4 9)))
 (let (($x2593 (= cell_5_4 8)))
 (let (($x401 (= cell_5_4 7)))
 (let (($x2585 (= cell_5_4 6)))
 (let (($x1476 (= cell_5_4 5)))
 (let (($x6894 (= cell_5_4 4)))
 (let (($x517 (= cell_5_4 3)))
 (let (($x425 (= cell_5_4 2)))
 (let (($x48 (= cell_5_4 1)))
 (or $x48 $x425 $x517 $x6894 $x1476 $x2585 $x401 $x2593 $x6209)))))))))))
(assert
 (let (($x780 (= cell_6_4 9)))
 (let (($x7210 (= cell_6_4 8)))
 (let (($x9866 (= cell_6_4 7)))
 (let (($x7305 (= cell_6_4 6)))
 (let (($x1194 (= cell_6_4 5)))
 (let (($x1318 (= cell_6_4 4)))
 (let (($x1634 (= cell_6_4 3)))
 (let (($x10203 (= cell_6_4 2)))
 (let (($x7128 (= cell_6_4 1)))
 (or $x7128 $x10203 $x1634 $x1318 $x1194 $x7305 $x9866 $x7210 $x780)))))))))))
(assert
 (let (($x7249 (= cell_7_4 9)))
 (let (($x6333 (= cell_7_4 8)))
 (let (($x3414 (= cell_7_4 7)))
 (let (($x4966 (= cell_7_4 6)))
 (let (($x4574 (= cell_7_4 5)))
 (let (($x5177 (= cell_7_4 4)))
 (let (($x246 (= cell_7_4 3)))
 (let (($x4896 (= cell_7_4 2)))
 (let (($x8307 (= cell_7_4 1)))
 (or $x8307 $x4896 $x246 $x5177 $x4574 $x4966 $x3414 $x6333 $x7249)))))))))))
(assert
 (let (($x3387 (= cell_8_4 9)))
 (let (($x2709 (= cell_8_4 8)))
 (let (($x5991 (= cell_8_4 7)))
 (let (($x8626 (= cell_8_4 6)))
 (let (($x1677 (= cell_8_4 5)))
 (let (($x2262 (= cell_8_4 4)))
 (let (($x3519 (= cell_8_4 3)))
 (let (($x3721 (= cell_8_4 2)))
 (let (($x2198 (= cell_8_4 1)))
 (or $x2198 $x3721 $x3519 $x2262 $x1677 $x8626 $x5991 $x2709 $x3387)))))))))))
(assert
 (let (($x10009 (= cell_9_4 9)))
 (let (($x4466 (= cell_9_4 8)))
 (let (($x2068 (= cell_9_4 7)))
 (let (($x2436 (= cell_9_4 6)))
 (let (($x6976 (= cell_9_4 5)))
 (let (($x5232 (= cell_9_4 4)))
 (let (($x2655 (= cell_9_4 3)))
 (let (($x7797 (= cell_9_4 2)))
 (let (($x3748 (= cell_9_4 1)))
 (or $x3748 $x7797 $x2655 $x5232 $x6976 $x2436 $x2068 $x4466 $x10009)))))))))))
(assert
 (let (($x2906 (= cell_1_5 9)))
 (let (($x7886 (= cell_1_5 8)))
 (let (($x5537 (= cell_1_5 7)))
 (let (($x1675 (= cell_1_5 6)))
 (let (($x2999 (= cell_1_5 5)))
 (let (($x6155 (= cell_1_5 4)))
 (let (($x2531 (= cell_1_5 3)))
 (let (($x6915 (= cell_1_5 2)))
 (let (($x2596 (= cell_1_5 1)))
 (or $x2596 $x6915 $x2531 $x6155 $x2999 $x1675 $x5537 $x7886 $x2906)))))))))))
(assert
 (let (($x4368 (= cell_2_5 9)))
 (let (($x6891 (= cell_2_5 8)))
 (let (($x6718 (= cell_2_5 7)))
 (let (($x264 (= cell_2_5 6)))
 (let (($x5796 (= cell_2_5 5)))
 (let (($x1808 (= cell_2_5 4)))
 (let (($x7801 (= cell_2_5 3)))
 (let (($x991 (= cell_2_5 2)))
 (let (($x3487 (= cell_2_5 1)))
 (or $x3487 $x991 $x7801 $x1808 $x5796 $x264 $x6718 $x6891 $x4368)))))))))))
(assert
 (let (($x5390 (= cell_3_5 9)))
 (let (($x6581 (= cell_3_5 8)))
 (let (($x5580 (= cell_3_5 7)))
 (let (($x1216 (= cell_3_5 6)))
 (let (($x7982 (= cell_3_5 5)))
 (let (($x7570 (= cell_3_5 4)))
 (let (($x7558 (= cell_3_5 3)))
 (let (($x9759 (= cell_3_5 2)))
 (let (($x6611 (= cell_3_5 1)))
 (or $x6611 $x9759 $x7558 $x7570 $x7982 $x1216 $x5580 $x6581 $x5390)))))))))))
(assert
 (let (($x4473 (= cell_4_5 9)))
 (let (($x8904 (= cell_4_5 8)))
 (let (($x8863 (= cell_4_5 7)))
 (let (($x7669 (= cell_4_5 6)))
 (let (($x7728 (= cell_4_5 5)))
 (let (($x1340 (= cell_4_5 4)))
 (let (($x7903 (= cell_4_5 3)))
 (let (($x2414 (= cell_4_5 2)))
 (let (($x6968 (= cell_4_5 1)))
 (or $x6968 $x2414 $x7903 $x1340 $x7728 $x7669 $x8863 $x8904 $x4473)))))))))))
(assert
 (let (($x1098 (= cell_5_5 9)))
 (let (($x181 (= cell_5_5 8)))
 (let (($x4228 (= cell_5_5 7)))
 (let (($x3468 (= cell_5_5 6)))
 (let (($x5211 (= cell_5_5 5)))
 (let (($x5887 (= cell_5_5 4)))
 (let (($x8916 (= cell_5_5 3)))
 (let (($x966 (= cell_5_5 2)))
 (let (($x5156 (= cell_5_5 1)))
 (or $x5156 $x966 $x8916 $x5887 $x5211 $x3468 $x4228 $x181 $x1098)))))))))))
(assert
 (let (($x7125 (= cell_6_5 9)))
 (let (($x1273 (= cell_6_5 8)))
 (let (($x1993 (= cell_6_5 7)))
 (let (($x4266 (= cell_6_5 6)))
 (let (($x1800 (= cell_6_5 5)))
 (let (($x3231 (= cell_6_5 4)))
 (let (($x591 (= cell_6_5 3)))
 (let (($x5836 (= cell_6_5 2)))
 (let (($x457 (= cell_6_5 1)))
 (or $x457 $x5836 $x591 $x3231 $x1800 $x4266 $x1993 $x1273 $x7125)))))))))))
(assert
 (let (($x9455 (= cell_7_5 1)))
 (or $x9455 (= cell_7_5 2) (= cell_7_5 3) (= cell_7_5 4) (= cell_7_5 5) (= cell_7_5 6) (= cell_7_5 7) (= cell_7_5 8) (= cell_7_5 9))))
(assert
 (let (($x10116 (= cell_8_5 9)))
 (let (($x6096 (= cell_8_5 8)))
 (let (($x1588 (= cell_8_5 7)))
 (let (($x8 (= cell_8_5 6)))
 (let (($x6004 (= cell_8_5 5)))
 (let (($x8561 (= cell_8_5 4)))
 (let (($x4712 (= cell_8_5 3)))
 (let (($x9037 (= cell_8_5 2)))
 (let (($x8843 (= cell_8_5 1)))
 (or $x8843 $x9037 $x4712 $x8561 $x6004 $x8 $x1588 $x6096 $x10116)))))))))))
(assert
 (let (($x5466 (= cell_9_5 2)))
 (or (= cell_9_5 1) $x5466 (= cell_9_5 3) (= cell_9_5 4) (= cell_9_5 5) (= cell_9_5 6) (= cell_9_5 7) (= cell_9_5 8) (= cell_9_5 9))))
(assert
 (let (($x1662 (= cell_1_6 9)))
 (let (($x5251 (= cell_1_6 8)))
 (let (($x5878 (= cell_1_6 7)))
 (let (($x1970 (= cell_1_6 6)))
 (let (($x6590 (= cell_1_6 5)))
 (let (($x2454 (= cell_1_6 4)))
 (let (($x2815 (= cell_1_6 3)))
 (let (($x6145 (= cell_1_6 2)))
 (let (($x4691 (= cell_1_6 1)))
 (or $x4691 $x6145 $x2815 $x2454 $x6590 $x1970 $x5878 $x5251 $x1662)))))))))))
(assert
 (let (($x6288 (= cell_2_6 9)))
 (let (($x6380 (= cell_2_6 8)))
 (let (($x10136 (= cell_2_6 7)))
 (let (($x2079 (= cell_2_6 6)))
 (let (($x10056 (= cell_2_6 5)))
 (let (($x5426 (= cell_2_6 4)))
 (let (($x345 (= cell_2_6 3)))
 (let (($x5491 (= cell_2_6 2)))
 (let (($x1254 (= cell_2_6 1)))
 (or $x1254 $x5491 $x345 $x5426 $x10056 $x2079 $x10136 $x6380 $x6288)))))))))))
(assert
 (let (($x5629 (= cell_3_6 9)))
 (let (($x5830 (= cell_3_6 8)))
 (let (($x9779 (= cell_3_6 7)))
 (let (($x5601 (= cell_3_6 6)))
 (let (($x8804 (= cell_3_6 5)))
 (let (($x735 (= cell_3_6 4)))
 (let (($x7055 (= cell_3_6 3)))
 (let (($x9914 (= cell_3_6 2)))
 (let (($x6608 (= cell_3_6 1)))
 (or $x6608 $x9914 $x7055 $x735 $x8804 $x5601 $x9779 $x5830 $x5629)))))))))))
(assert
 (let (($x5404 (= cell_4_6 2)))
 (or (= cell_4_6 1) $x5404 (= cell_4_6 3) (= cell_4_6 4) (= cell_4_6 5) (= cell_4_6 6) (= cell_4_6 7) (= cell_4_6 8) (= cell_4_6 9))))
(assert
 (let (($x4758 (= cell_5_6 9)))
 (let (($x4776 (= cell_5_6 8)))
 (let (($x6851 (= cell_5_6 7)))
 (let (($x7657 (= cell_5_6 6)))
 (let (($x388 (= cell_5_6 5)))
 (let (($x6039 (= cell_5_6 4)))
 (let (($x2674 (= cell_5_6 3)))
 (let (($x6554 (= cell_5_6 2)))
 (let (($x5897 (= cell_5_6 1)))
 (or $x5897 $x6554 $x2674 $x6039 $x388 $x7657 $x6851 $x4776 $x4758)))))))))))
(assert
 (let (($x9 (= cell_6_6 1)))
 (or $x9 (= cell_6_6 2) (= cell_6_6 3) (= cell_6_6 4) (= cell_6_6 5) (= cell_6_6 6) (= cell_6_6 7) (= cell_6_6 8) (= cell_6_6 9))))
(assert
 (let (($x5054 (= cell_7_6 9)))
 (let (($x8855 (= cell_7_6 8)))
 (let (($x1558 (= cell_7_6 7)))
 (let (($x2206 (= cell_7_6 6)))
 (let (($x5405 (= cell_7_6 5)))
 (let (($x7609 (= cell_7_6 4)))
 (let (($x8716 (= cell_7_6 3)))
 (let (($x4336 (= cell_7_6 2)))
 (let (($x4846 (= cell_7_6 1)))
 (or $x4846 $x4336 $x8716 $x7609 $x5405 $x2206 $x1558 $x8855 $x5054)))))))))))
(assert
 (let (($x4591 (= cell_8_6 9)))
 (let (($x4907 (= cell_8_6 8)))
 (let (($x7193 (= cell_8_6 7)))
 (let (($x4413 (= cell_8_6 6)))
 (let (($x1930 (= cell_8_6 5)))
 (let (($x7069 (= cell_8_6 4)))
 (let (($x5215 (= cell_8_6 3)))
 (let (($x10106 (= cell_8_6 2)))
 (let (($x4371 (= cell_8_6 1)))
 (or $x4371 $x10106 $x5215 $x7069 $x1930 $x4413 $x7193 $x4907 $x4591)))))))))))
(assert
 (let (($x986 (= cell_9_6 2)))
 (let (($x5763 (= cell_9_6 1)))
 (or $x5763 $x986 (= cell_9_6 3) (= cell_9_6 4) (= cell_9_6 5) (= cell_9_6 6) (= cell_9_6 7) (= cell_9_6 8) (= cell_9_6 9)))))
(assert
 (let (($x7030 (= cell_1_7 1)))
 (or $x7030 (= cell_1_7 2) (= cell_1_7 3) (= cell_1_7 4) (= cell_1_7 5) (= cell_1_7 6) (= cell_1_7 7) (= cell_1_7 8) (= cell_1_7 9))))
(assert
 (let (($x2650 (= cell_2_7 9)))
 (let (($x5425 (= cell_2_7 8)))
 (let (($x8054 (= cell_2_7 7)))
 (let (($x298 (= cell_2_7 6)))
 (let (($x7660 (= cell_2_7 5)))
 (let (($x777 (= cell_2_7 4)))
 (let (($x7665 (= cell_2_7 3)))
 (let (($x2036 (= cell_2_7 2)))
 (let (($x7927 (= cell_2_7 1)))
 (or $x7927 $x2036 $x7665 $x777 $x7660 $x298 $x8054 $x5425 $x2650)))))))))))
(assert
 (let (($x3126 (= cell_3_7 9)))
 (let (($x136 (= cell_3_7 8)))
 (let (($x2841 (= cell_3_7 7)))
 (let (($x957 (= cell_3_7 6)))
 (let (($x8144 (= cell_3_7 5)))
 (let (($x6546 (= cell_3_7 4)))
 (let (($x2005 (= cell_3_7 3)))
 (let (($x982 (= cell_3_7 2)))
 (let (($x6858 (= cell_3_7 1)))
 (or $x6858 $x982 $x2005 $x6546 $x8144 $x957 $x2841 $x136 $x3126)))))))))))
(assert
 (let (($x2278 (= cell_4_7 9)))
 (let (($x8825 (= cell_4_7 8)))
 (let (($x5960 (= cell_4_7 7)))
 (let (($x121 (= cell_4_7 6)))
 (let (($x7825 (= cell_4_7 5)))
 (let (($x4135 (= cell_4_7 4)))
 (let (($x4648 (= cell_4_7 3)))
 (let (($x9531 (= cell_4_7 2)))
 (let (($x7084 (= cell_4_7 1)))
 (or $x7084 $x9531 $x4648 $x4135 $x7825 $x121 $x5960 $x8825 $x2278)))))))))))
(assert
 (let (($x691 (= cell_5_7 9)))
 (let (($x9646 (= cell_5_7 8)))
 (let (($x4941 (= cell_5_7 7)))
 (let (($x9839 (= cell_5_7 6)))
 (let (($x4639 (= cell_5_7 5)))
 (let (($x4127 (= cell_5_7 4)))
 (let (($x206 (= cell_5_7 3)))
 (let (($x857 (= cell_5_7 2)))
 (let (($x9902 (= cell_5_7 1)))
 (or $x9902 $x857 $x206 $x4127 $x4639 $x9839 $x4941 $x9646 $x691)))))))))))
(assert
 (let (($x1913 (= cell_6_7 9)))
 (let (($x8526 (= cell_6_7 8)))
 (let (($x1070 (= cell_6_7 7)))
 (let (($x2185 (= cell_6_7 6)))
 (let (($x8799 (= cell_6_7 5)))
 (let (($x287 (= cell_6_7 4)))
 (let (($x8161 (= cell_6_7 3)))
 (let (($x3666 (= cell_6_7 2)))
 (let (($x5098 (= cell_6_7 1)))
 (or $x5098 $x3666 $x8161 $x287 $x8799 $x2185 $x1070 $x8526 $x1913)))))))))))
(assert
 (let (($x125 (= cell_7_7 2)))
 (or (= cell_7_7 1) $x125 (= cell_7_7 3) (= cell_7_7 4) (= cell_7_7 5) (= cell_7_7 6) (= cell_7_7 7) (= cell_7_7 8) (= cell_7_7 9))))
(assert
 (let (($x8352 (= cell_8_7 9)))
 (let (($x7324 (= cell_8_7 8)))
 (let (($x6480 (= cell_8_7 7)))
 (let (($x5548 (= cell_8_7 6)))
 (let (($x5906 (= cell_8_7 5)))
 (let (($x9054 (= cell_8_7 4)))
 (let (($x582 (= cell_8_7 3)))
 (let (($x3478 (= cell_8_7 2)))
 (let (($x851 (= cell_8_7 1)))
 (or $x851 $x3478 $x582 $x9054 $x5906 $x5548 $x6480 $x7324 $x8352)))))))))))
(assert
 (let (($x4677 (= cell_9_7 2)))
 (let (($x2299 (= cell_9_7 1)))
 (or $x2299 $x4677 (= cell_9_7 3) (= cell_9_7 4) (= cell_9_7 5) (= cell_9_7 6) (= cell_9_7 7) (= cell_9_7 8) (= cell_9_7 9)))))
(assert
 (let (($x4865 (= cell_1_8 2)))
 (or (= cell_1_8 1) $x4865 (= cell_1_8 3) (= cell_1_8 4) (= cell_1_8 5) (= cell_1_8 6) (= cell_1_8 7) (= cell_1_8 8) (= cell_1_8 9))))
(assert
 (let (($x4833 (= cell_2_8 9)))
 (let (($x4813 (= cell_2_8 8)))
 (let (($x3757 (= cell_2_8 7)))
 (let (($x6478 (= cell_2_8 6)))
 (let (($x1908 (= cell_2_8 5)))
 (let (($x5591 (= cell_2_8 4)))
 (let (($x8337 (= cell_2_8 3)))
 (let (($x3695 (= cell_2_8 2)))
 (let (($x9021 (= cell_2_8 1)))
 (or $x9021 $x3695 $x8337 $x5591 $x1908 $x6478 $x3757 $x4813 $x4833)))))))))))
(assert
 (let (($x7043 (= cell_3_8 9)))
 (let (($x599 (= cell_3_8 8)))
 (let (($x3257 (= cell_3_8 7)))
 (let (($x699 (= cell_3_8 6)))
 (let (($x2492 (= cell_3_8 5)))
 (let (($x10077 (= cell_3_8 4)))
 (let (($x6213 (= cell_3_8 3)))
 (let (($x7418 (= cell_3_8 2)))
 (let (($x7172 (= cell_3_8 1)))
 (or $x7172 $x7418 $x6213 $x10077 $x2492 $x699 $x3257 $x599 $x7043)))))))))))
(assert
 (let (($x7200 (= cell_4_8 1)))
 (or $x7200 (= cell_4_8 2) (= cell_4_8 3) (= cell_4_8 4) (= cell_4_8 5) (= cell_4_8 6) (= cell_4_8 7) (= cell_4_8 8) (= cell_4_8 9))))
(assert
 (let (($x4487 (= cell_5_8 9)))
 (let (($x3436 (= cell_5_8 8)))
 (let (($x9230 (= cell_5_8 7)))
 (let (($x8282 (= cell_5_8 6)))
 (let (($x3751 (= cell_5_8 5)))
 (let (($x3239 (= cell_5_8 4)))
 (let (($x3600 (= cell_5_8 3)))
 (let (($x8650 (= cell_5_8 2)))
 (let (($x3982 (= cell_5_8 1)))
 (or $x3982 $x8650 $x3600 $x3239 $x3751 $x8282 $x9230 $x3436 $x4487)))))))))))
(assert
 (let (($x3835 (= cell_6_8 9)))
 (let (($x9919 (= cell_6_8 8)))
 (let (($x1197 (= cell_6_8 7)))
 (let (($x8902 (= cell_6_8 6)))
 (let (($x2495 (= cell_6_8 5)))
 (let (($x3331 (= cell_6_8 4)))
 (let (($x3907 (= cell_6_8 3)))
 (let (($x9155 (= cell_6_8 2)))
 (let (($x7561 (= cell_6_8 1)))
 (or $x7561 $x9155 $x3907 $x3331 $x2495 $x8902 $x1197 $x9919 $x3835)))))))))))
(assert
 (let (($x10163 (= cell_7_8 9)))
 (let (($x7658 (= cell_7_8 8)))
 (let (($x4651 (= cell_7_8 7)))
 (let (($x3439 (= cell_7_8 6)))
 (let (($x2156 (= cell_7_8 5)))
 (let (($x615 (= cell_7_8 4)))
 (let (($x883 (= cell_7_8 3)))
 (let (($x8196 (= cell_7_8 2)))
 (let (($x7635 (= cell_7_8 1)))
 (or $x7635 $x8196 $x883 $x615 $x2156 $x3439 $x4651 $x7658 $x10163)))))))))))
(assert
 (let (($x8948 (= cell_8_8 9)))
 (let (($x7925 (= cell_8_8 8)))
 (let (($x9930 (= cell_8_8 7)))
 (let (($x9199 (= cell_8_8 6)))
 (let (($x2871 (= cell_8_8 5)))
 (let (($x6725 (= cell_8_8 4)))
 (let (($x3088 (= cell_8_8 3)))
 (let (($x207 (= cell_8_8 2)))
 (let (($x4123 (= cell_8_8 1)))
 (or $x4123 $x207 $x3088 $x6725 $x2871 $x9199 $x9930 $x7925 $x8948)))))))))))
(assert
 (let (($x5706 (= cell_9_8 2)))
 (let (($x9936 (= cell_9_8 1)))
 (or $x9936 $x5706 (= cell_9_8 3) (= cell_9_8 4) (= cell_9_8 5) (= cell_9_8 6) (= cell_9_8 7) (= cell_9_8 8) (= cell_9_8 9)))))
(assert
 (let (($x64 (= cell_1_9 9)))
 (let (($x3352 (= cell_1_9 8)))
 (let (($x5382 (= cell_1_9 7)))
 (let (($x8528 (= cell_1_9 6)))
 (let (($x4226 (= cell_1_9 5)))
 (let (($x5645 (= cell_1_9 4)))
 (let (($x9885 (= cell_1_9 3)))
 (let (($x7075 (= cell_1_9 2)))
 (let (($x9696 (= cell_1_9 1)))
 (or $x9696 $x7075 $x9885 $x5645 $x4226 $x8528 $x5382 $x3352 $x64)))))))))))
(assert
 (let (($x8244 (= cell_2_9 3)))
 (or (= cell_2_9 1) (= cell_2_9 2) $x8244 (= cell_2_9 4) (= cell_2_9 5) (= cell_2_9 6) (= cell_2_9 7) (= cell_2_9 8) (= cell_2_9 9))))
(assert
 (let (($x6205 (= cell_3_9 9)))
 (let (($x7129 (= cell_3_9 8)))
 (let (($x8397 (= cell_3_9 7)))
 (let (($x9638 (= cell_3_9 6)))
 (let (($x7791 (= cell_3_9 5)))
 (let (($x55 (= cell_3_9 4)))
 (let (($x5311 (= cell_3_9 3)))
 (let (($x5856 (= cell_3_9 2)))
 (let (($x8380 (= cell_3_9 1)))
 (or $x8380 $x5856 $x5311 $x55 $x7791 $x9638 $x8397 $x7129 $x6205)))))))))))
(assert
 (let (($x8039 (= cell_4_9 9)))
 (let (($x9335 (= cell_4_9 8)))
 (let (($x32 (= cell_4_9 7)))
 (let (($x4069 (= cell_4_9 6)))
 (let (($x2801 (= cell_4_9 5)))
 (let (($x1921 (= cell_4_9 4)))
 (let (($x4788 (= cell_4_9 3)))
 (let (($x8998 (= cell_4_9 2)))
 (let (($x5549 (= cell_4_9 1)))
 (or $x5549 $x8998 $x4788 $x1921 $x2801 $x4069 $x32 $x9335 $x8039)))))))))))
(assert
 (let (($x1665 (= cell_5_9 9)))
 (let (($x3223 (= cell_5_9 8)))
 (let (($x5225 (= cell_5_9 7)))
 (let (($x8735 (= cell_5_9 6)))
 (let (($x4569 (= cell_5_9 5)))
 (let (($x1934 (= cell_5_9 4)))
 (let (($x9104 (= cell_5_9 3)))
 (let (($x809 (= cell_5_9 2)))
 (let (($x4485 (= cell_5_9 1)))
 (or $x4485 $x809 $x9104 $x1934 $x4569 $x8735 $x5225 $x3223 $x1665)))))))))))
(assert
 (let (($x1010 (= cell_6_9 2)))
 (or (= cell_6_9 1) $x1010 (= cell_6_9 3) (= cell_6_9 4) (= cell_6_9 5) (= cell_6_9 6) (= cell_6_9 7) (= cell_6_9 8) (= cell_6_9 9))))
(assert
 (let (($x9915 (= cell_7_9 9)))
 (let (($x8374 (= cell_7_9 8)))
 (let (($x9330 (= cell_7_9 7)))
 (let (($x4440 (= cell_7_9 6)))
 (let (($x5478 (= cell_7_9 5)))
 (let (($x3429 (= cell_7_9 4)))
 (let (($x1883 (= cell_7_9 3)))
 (let (($x9503 (= cell_7_9 2)))
 (let (($x4101 (= cell_7_9 1)))
 (or $x4101 $x9503 $x1883 $x3429 $x5478 $x4440 $x9330 $x8374 $x9915)))))))))))
(assert
 (let (($x9177 (= cell_8_9 1)))
 (or $x9177 (= cell_8_9 2) (= cell_8_9 3) (= cell_8_9 4) (= cell_8_9 5) (= cell_8_9 6) (= cell_8_9 7) (= cell_8_9 8) (= cell_8_9 9))))
(assert
 (let (($x5943 (= cell_9_9 3)))
 (let (($x2944 (= cell_9_9 2)))
 (let (($x5579 (= cell_9_9 1)))
 (or $x5579 $x2944 $x5943 (= cell_9_9 4) (= cell_9_9 5) (= cell_9_9 6) (= cell_9_9 7) (= cell_9_9 8) (= cell_9_9 9))))))
(assert
 (and (distinct cell_1_1 cell_1_2 cell_1_3 cell_1_4 cell_1_5 cell_1_6 cell_1_7 cell_1_8 cell_1_9) true))
(assert
 (and (distinct cell_2_1 cell_2_2 cell_2_3 cell_2_4 cell_2_5 cell_2_6 cell_2_7 cell_2_8 cell_2_9) true))
(assert
 (and (distinct cell_3_1 cell_3_2 cell_3_3 cell_3_4 cell_3_5 cell_3_6 cell_3_7 cell_3_8 cell_3_9) true))
(assert
 (and (distinct cell_4_1 cell_4_2 cell_4_3 cell_4_4 cell_4_5 cell_4_6 cell_4_7 cell_4_8 cell_4_9) true))
(assert
 (and (distinct cell_5_1 cell_5_2 cell_5_3 cell_5_4 cell_5_5 cell_5_6 cell_5_7 cell_5_8 cell_5_9) true))
(assert
 (and (distinct cell_6_1 cell_6_2 cell_6_3 cell_6_4 cell_6_5 cell_6_6 cell_6_7 cell_6_8 cell_6_9) true))
(assert
 (and (distinct cell_7_1 cell_7_2 cell_7_3 cell_7_4 cell_7_5 cell_7_6 cell_7_7 cell_7_8 cell_7_9) true))
(assert
 (and (distinct cell_8_1 cell_8_2 cell_8_3 cell_8_4 cell_8_5 cell_8_6 cell_8_7 cell_8_8 cell_8_9) true))
(assert
 (and (distinct cell_9_1 cell_9_2 cell_9_3 cell_9_4 cell_9_5 cell_9_6 cell_9_7 cell_9_8 cell_9_9) true))
(assert
 (and (distinct cell_1_1 cell_2_1 cell_3_1 cell_4_1 cell_5_1 cell_6_1 cell_7_1 cell_8_1 cell_9_1) true))
(assert
 (and (distinct cell_1_2 cell_2_2 cell_3_2 cell_4_2 cell_5_2 cell_6_2 cell_7_2 cell_8_2 cell_9_2) true))
(assert
 (and (distinct cell_1_3 cell_2_3 cell_3_3 cell_4_3 cell_5_3 cell_6_3 cell_7_3 cell_8_3 cell_9_3) true))
(assert
 (and (distinct cell_1_4 cell_2_4 cell_3_4 cell_4_4 cell_5_4 cell_6_4 cell_7_4 cell_8_4 cell_9_4) true))
(assert
 (and (distinct cell_1_5 cell_2_5 cell_3_5 cell_4_5 cell_5_5 cell_6_5 cell_7_5 cell_8_5 cell_9_5) true))
(assert
 (and (distinct cell_1_6 cell_2_6 cell_3_6 cell_4_6 cell_5_6 cell_6_6 cell_7_6 cell_8_6 cell_9_6) true))
(assert
 (and (distinct cell_1_7 cell_2_7 cell_3_7 cell_4_7 cell_5_7 cell_6_7 cell_7_7 cell_8_7 cell_9_7) true))
(assert
 (and (distinct cell_1_8 cell_2_8 cell_3_8 cell_4_8 cell_5_8 cell_6_8 cell_7_8 cell_8_8 cell_9_8) true))
(assert
 (and (distinct cell_1_9 cell_2_9 cell_3_9 cell_4_9 cell_5_9 cell_6_9 cell_7_9 cell_8_9 cell_9_9) true))
(assert
 (and (distinct cell_1_1 cell_1_2 cell_1_3 cell_2_1 cell_2_2 cell_2_3 cell_3_1 cell_3_2 cell_3_3) true))
(assert
 (and (distinct cell_1_4 cell_1_5 cell_1_6 cell_2_4 cell_2_5 cell_2_6 cell_3_4 cell_3_5 cell_3_6) true))
(assert
 (and (distinct cell_1_7 cell_1_8 cell_1_9 cell_2_7 cell_2_8 cell_2_9 cell_3_7 cell_3_8 cell_3_9) true))
(assert
 (and (distinct cell_4_1 cell_4_2 cell_4_3 cell_5_1 cell_5_2 cell_5_3 cell_6_1 cell_6_2 cell_6_3) true))
(assert
 (and (distinct cell_4_4 cell_4_5 cell_4_6 cell_5_4 cell_5_5 cell_5_6 cell_6_4 cell_6_5 cell_6_6) true))
(assert
 (and (distinct cell_4_7 cell_4_8 cell_4_9 cell_5_7 cell_5_8 cell_5_9 cell_6_7 cell_6_8 cell_6_9) true))
(assert
 (and (distinct cell_7_1 cell_7_2 cell_7_3 cell_8_1 cell_8_2 cell_8_3 cell_9_1 cell_9_2 cell_9_3) true))
(assert
 (and (distinct cell_7_4 cell_7_5 cell_7_6 cell_8_4 cell_8_5 cell_8_6 cell_9_4 cell_9_5 cell_9_6) true))
(assert
 (and (distinct cell_7_7 cell_7_8 cell_7_9 cell_8_7 cell_8_8 cell_8_9 cell_9_7 cell_9_8 cell_9_9) true))
(assert
 (let (($x2282 (and (distinct cell_5_9 cell_6_8 cell_7_7 cell_8_6) true)))
 (let (($x2628 (and (distinct cell_2_9 cell_3_8 cell_4_7 cell_5_6 cell_6_5 cell_7_4 cell_8_3 cell_9_2) true)))
 (let (($x278 (and (distinct cell_1_8 cell_2_7 cell_3_6 cell_4_5 cell_5_4 cell_6_3 cell_7_2 cell_8_1) true)))
 (let (($x6198 (and (distinct cell_1_5 cell_2_4 cell_3_3 cell_4_2) true)))
 (let (($x10149 (and (distinct cell_5_1 cell_6_2 cell_7_3 cell_8_4) true)))
 (let (($x335 (and (distinct cell_2_1 cell_3_2 cell_4_3 cell_5_4 cell_6_5 cell_7_6 cell_8_7 cell_9_8) true)))
 (let (($x8058 (and (distinct cell_1_2 cell_2_3 cell_3_4 cell_4_5 cell_5_6 cell_6_7 cell_7_8 cell_8_9) true)))
 (let (($x1714 (and (distinct cell_1_5 cell_2_6 cell_3_7 cell_4_8) true)))
 (and $x1714 $x8058 $x335 $x10149 $x6198 $x278 $x2628 $x2282))))))))))
(assert
 (and (distinct cell_3_1 3) true))
(check-sat)
